unknown
(:binary-propagations  2616
 :decisions            1188
 :del-clause           928
 :final-checks         2
 :max-generation       1
 :max-memory           34.76
 :memory               23.37
 :mk-bool-var          5942
 :mk-clause            1630
 :mk-clause-binary     4014
 :num-allocs           903847302
 :num-checks           1
 :propagations         2826
 :quant-instantiations 928
 :restarts             1
 :rlimit-count         2591792
 :time                 0.31)
